## INFORMACION
##                                HORAS REQUERIDAS
## OPERACION                 Convencimiento  Trámites  BENEFICIOS
## Captación de depósitos    1               1               1 * a
##              Préstamos    1               2         (1+1/3) * a
## Disponibilidad de tiempo  40              60

set OPERACION := XC  XP;      # {i} Tipos de operación
set RECURSOS  := Convencimiento  Tramites;  # {i} Tipos de recursos

param a := 1; # Factor de escala del beneficio

param A:    Convencimiento  Tramites:=     # Beneficio unitario por cada operación
         XC         1          1
         XP         1          2 ; 
             
param P:=  # Horas requeridas de los recursos por cada operacion
       XC  100
       XP  133.333 ; #(1 + 1/3)

param B  :=  # Horas totales disponibles de cada recurso
      Convencimiento  40
      Tramites        60 ;